  &control
    calculation = 'nscf',
    verbosity='high'
    pseudo_dir   = "../psps"
    outdir       = "."
    wf_collect=.TRUE.,
    prefix='LiF',
 /
 &system
    ibrav = 2, nat = 2, ntyp = 2,
    force_symmorphic=.TRUE. ,
    ecutwfc = 80.0,
    nbnd = 10 ,
    celldm(1)=7.703476,
 /
 &electrons
    diago_full_acc = .TRUE.,
    conv_thr =  1.0d-10
 /
 ATOMIC_SPECIES
    Li    6.941       Li.upf
     F    18.998403   F.upf
ATOMIC_POSITIONS crystal
Li  0. 0. 0.
 F  0.5 -0.5 -0.5
K_POINTS crystal
125
-0.0000000000   0.0000000000    0.0000000000 0.0080000000
-0.0000000000   0.0000000000    0.2000000000 0.0080000000
-0.2000000000   -0.2000000000    -0.2000000000 0.0080000000
-0.0000000000   0.2000000000    0.0000000000 0.0080000000
0.2000000000   0.0000000000    0.0000000000 0.0080000000
-0.0000000000   0.0000000000    -0.2000000000 0.0080000000
0.2000000000   0.2000000000    0.2000000000 0.0080000000
-0.0000000000   -0.2000000000    0.0000000000 0.0080000000
-0.2000000000   0.0000000000    0.0000000000 0.0080000000
-0.0000000000   0.0000000000    0.4000000000 0.0080000000
-0.4000000000   -0.4000000000    -0.4000000000 0.0080000000
-0.0000000000   0.4000000000    0.0000000000 0.0080000000
0.4000000000   0.0000000000    0.0000000000 0.0080000000
-0.0000000000   0.0000000000    -0.4000000000 0.0080000000
0.4000000000   0.4000000000    0.4000000000 0.0080000000
-0.0000000000   -0.4000000000    0.0000000000 0.0080000000
-0.4000000000   0.0000000000    0.0000000000 0.0080000000
-0.0000000000   0.2000000000    0.2000000000 0.0080000000
-0.0000000000   -0.2000000000    -0.2000000000 0.0080000000
-0.2000000000   0.0000000000    -0.2000000000 0.0080000000
0.2000000000   0.0000000000    0.2000000000 0.0080000000
0.2000000000   0.2000000000    0.0000000000 0.0080000000
-0.2000000000   -0.2000000000    0.0000000000 0.0080000000
-0.0000000000   0.2000000000    0.4000000000 0.0080000000
-0.2000000000   -0.4000000000    -0.4000000000 0.0080000000
-0.0000000000   0.4000000000    0.2000000000 0.0080000000
0.2000000000   -0.2000000000    -0.2000000000 0.0080000000
-0.2000000000   0.0000000000    -0.4000000000 0.0080000000
0.4000000000   0.2000000000    0.4000000000 0.0080000000
0.2000000000   -0.2000000000    0.2000000000 0.0080000000
-0.4000000000   0.0000000000    -0.2000000000 0.0080000000
-0.0000000000   -0.4000000000    -0.2000000000 0.0080000000
-0.0000000000   -0.2000000000    -0.4000000000 0.0080000000
-0.2000000000   0.2000000000    0.2000000000 0.0080000000
0.2000000000   0.4000000000    0.4000000000 0.0080000000
0.2000000000   0.2000000000    -0.2000000000 0.0080000000
-0.4000000000   -0.2000000000    0.0000000000 0.0080000000
0.4000000000   0.4000000000    0.2000000000 0.0080000000
-0.2000000000   -0.4000000000    0.0000000000 0.0080000000
0.4000000000   0.2000000000    0.0000000000 0.0080000000
0.2000000000   0.4000000000    0.0000000000 0.0080000000
-0.4000000000   -0.4000000000    -0.2000000000 0.0080000000
-0.2000000000   -0.2000000000    0.2000000000 0.0080000000
-0.4000000000   -0.2000000000    -0.4000000000 0.0080000000
0.2000000000   0.0000000000    0.4000000000 0.0080000000
0.4000000000   0.0000000000    0.2000000000 0.0080000000
-0.2000000000   0.2000000000    -0.2000000000 0.0080000000
-0.0000000000   0.2000000000    -0.4000000000 0.0080000000
0.6000000000   0.4000000000    0.4000000000 0.0080000000
-0.0000000000   -0.4000000000    0.2000000000 0.0080000000
-0.6000000000   -0.2000000000    -0.2000000000 0.0080000000
-0.2000000000   0.0000000000    0.4000000000 0.0080000000
-0.4000000000   -0.6000000000    -0.4000000000 0.0080000000
0.2000000000   0.6000000000    0.2000000000 0.0080000000
0.4000000000   0.0000000000    -0.2000000000 0.0080000000
-0.0000000000   0.4000000000    -0.2000000000 0.0080000000
-0.0000000000   -0.2000000000    0.4000000000 0.0080000000
0.6000000000   0.2000000000    0.2000000000 0.0080000000
-0.6000000000   -0.4000000000    -0.4000000000 0.0080000000
0.2000000000   0.2000000000    0.6000000000 0.0080000000
0.4000000000   -0.2000000000    0.0000000000 0.0080000000
-0.4000000000   -0.4000000000    -0.6000000000 0.0080000000
-0.2000000000   0.4000000000    0.0000000000 0.0080000000
-0.4000000000   0.2000000000    0.0000000000 0.0080000000
0.2000000000   -0.4000000000    0.0000000000 0.0080000000
0.4000000000   0.4000000000    0.6000000000 0.0080000000
-0.2000000000   -0.2000000000    -0.6000000000 0.0080000000
0.4000000000   0.6000000000    0.4000000000 0.0080000000
0.2000000000   0.0000000000    -0.4000000000 0.0080000000
-0.4000000000   0.0000000000    0.2000000000 0.0080000000
-0.2000000000   -0.6000000000    -0.2000000000 0.0080000000
-0.0000000000   0.2000000000    -0.2000000000 0.0080000000
0.4000000000   0.2000000000    0.2000000000 0.0080000000
-0.0000000000   -0.2000000000    0.2000000000 0.0080000000
-0.4000000000   -0.2000000000    -0.2000000000 0.0080000000
-0.2000000000   0.0000000000    0.2000000000 0.0080000000
-0.2000000000   -0.4000000000    -0.2000000000 0.0080000000
0.2000000000   0.4000000000    0.2000000000 0.0080000000
0.2000000000   0.0000000000    -0.2000000000 0.0080000000
0.2000000000   0.2000000000    0.4000000000 0.0080000000
0.2000000000   -0.2000000000    0.0000000000 0.0080000000
-0.2000000000   -0.2000000000    -0.4000000000 0.0080000000
-0.2000000000   0.2000000000    0.0000000000 0.0080000000
-0.0000000000   0.4000000000    0.4000000000 0.0080000000
-0.0000000000   -0.4000000000    -0.4000000000 0.0080000000
-0.4000000000   0.0000000000    -0.4000000000 0.0080000000
0.4000000000   0.0000000000    0.4000000000 0.0080000000
0.4000000000   0.4000000000    0.0000000000 0.0080000000
-0.4000000000   -0.4000000000    0.0000000000 0.0080000000
-0.0000000000   0.4000000000    -0.4000000000 0.0080000000
0.8000000000   0.4000000000    0.4000000000 0.0080000000
-0.0000000000   -0.4000000000    0.4000000000 0.0080000000
-0.8000000000   -0.4000000000    -0.4000000000 0.0080000000
-0.4000000000   0.0000000000    0.4000000000 0.0080000000
-0.4000000000   -0.8000000000    -0.4000000000 0.0080000000
0.4000000000   0.8000000000    0.4000000000 0.0080000000
0.4000000000   0.0000000000    -0.4000000000 0.0080000000
0.4000000000   0.4000000000    0.8000000000 0.0080000000
0.4000000000   -0.4000000000    0.0000000000 0.0080000000
-0.4000000000   -0.4000000000    -0.8000000000 0.0080000000
-0.4000000000   0.4000000000    0.0000000000 0.0080000000
0.2000000000   0.4000000000    -0.4000000000 0.0080000000
0.8000000000   0.6000000000    0.4000000000 0.0080000000
-0.2000000000   -0.6000000000    0.2000000000 0.0080000000
-0.8000000000   -0.4000000000    -0.2000000000 0.0080000000
-0.4000000000   -0.2000000000    0.4000000000 0.0080000000
-0.6000000000   -0.8000000000    -0.4000000000 0.0080000000
0.4000000000   0.8000000000    0.2000000000 0.0080000000
0.6000000000   0.2000000000    -0.2000000000 0.0080000000
-0.2000000000   0.4000000000    -0.4000000000 0.0080000000
0.2000000000   -0.2000000000    0.6000000000 0.0080000000
0.8000000000   0.2000000000    0.4000000000 0.0080000000
-0.8000000000   -0.4000000000    -0.6000000000 0.0080000000
0.2000000000   0.4000000000    0.8000000000 0.0080000000
0.4000000000   -0.4000000000    -0.2000000000 0.0080000000
-0.4000000000   -0.6000000000    -0.8000000000 0.0080000000
-0.2000000000   0.6000000000    0.2000000000 0.0080000000
-0.6000000000   0.2000000000    -0.2000000000 0.0080000000
0.4000000000   -0.4000000000    0.2000000000 0.0080000000
0.6000000000   0.4000000000    0.8000000000 0.0080000000
-0.4000000000   -0.2000000000    -0.8000000000 0.0080000000
0.4000000000   0.8000000000    0.6000000000 0.0080000000
0.2000000000   -0.2000000000    -0.6000000000 0.0080000000
-0.4000000000   0.2000000000    0.4000000000 0.0080000000
-0.2000000000   -0.8000000000    -0.4000000000 0.0080000000
